param set_len = 28;
param target := 62770007;
param values := [1] 8296849 [2] 3719751 [3] 5786155 [4] 6212908 [5] 7360010 [6] 1429940 [7] 4329116 [8] 3813435 [9] 4355818 [10] 1244382 [11] 8168477 [12] 7176742 [13] 5213347 [14] 2991562 [15] 2083183 [16] 309433 [17] 6147701 [18] 342549 [19] 683062 [20] 2602681 [21] 5110693 [22] 2599303 [23] 2378793 [24] 946254 [25] 7568038 [26] 3494685 [27] 2515432 [28] 7780243 ;
